20
97.0
0 19 6.11 7.63
1 18 4.56 4.37
2 17 4.29 6.91
3 16 4.88 6.37
4 15 4.93 6.91
5 14 5.21 7.06
6 13 5.85 6.91
7 12 5.67 6.8
8 11 6.27 7.6
9 10 5.7 9.12
10 9 6.33 9.41
11 8 6.0 8.27
12 7 6.86 8.52
13 6 7.83 10.94
14 5 5.2 7.41
15 4 5.5 9.97
16 3 5.0 9.39
17 2 9.5 11.31
18 1 4.0 11.91
